language Essence 1.3

letting class be function(1 --> 1, 2 --> 1, 3 --> 3, 4 --> 3, 5 --> 3, 6 --> 2, 7 --> 2, 8 --> 2)
letting deck_length be 54
letting deck_width be 86
letting length be function(1 --> 41, 2 --> 1, 3 --> 6, 4 --> 11, 5 --> 28, 6 --> 15, 7 --> 24, 8 --> 49)
letting n_classes be 3
letting n_containers be 8
letting separation be function({1, 2} --> 30, {2, 3} --> 42)
letting width be function(1 --> 37, 2 --> 1, 3 --> 1, 4 --> 2, 5 --> 26, 6 --> 24, 7 --> 6, 8 --> 21)
